src/ARITHMETIC/ACCUMULATOR/formal/config_cover/model/design_smt2.smt2
; SMT-LIBv2 description generated by Yosys 0.9+932 (git sha1 65f197e2, clang 6.0.0-1ubuntu2 -fPIC -Os)
; yosys-smt2-module mkAccumulator_formal
(declare-sort |mkAccumulator_formal_s| 0)
(declare-fun |mkAccumulator_formal_is| (|mkAccumulator_formal_s|) Bool)
; yosys-smt2-output o_SUM 32
; yosys-smt2-wire o_SUM 32
(declare-fun |mkAccumulator_formal#0| (|mkAccumulator_formal_s|) (_ BitVec 32)) ; \acc_total
(define-fun |mkAccumulator_formal_n o_SUM| ((state |mkAccumulator_formal_s|)) (_ BitVec 32) (|mkAccumulator_formal#0| state))
; yosys-smt2-input i_RESET_N 1
; yosys-smt2-wire i_RESET_N 1
(declare-fun |mkAccumulator_formal#1| (|mkAccumulator_formal_s|) Bool) ; \i_RESET_N
(define-fun |mkAccumulator_formal_n i_RESET_N| ((state |mkAccumulator_formal_s|)) Bool (|mkAccumulator_formal#1| state))
; yosys-smt2-input i_ENABLE 1
; yosys-smt2-wire i_ENABLE 1
(declare-fun |mkAccumulator_formal#2| (|mkAccumulator_formal_s|) Bool) ; \i_ENABLE
(define-fun |mkAccumulator_formal_n i_ENABLE| ((state |mkAccumulator_formal_s|)) Bool (|mkAccumulator_formal#2| state))
; yosys-smt2-input i_DATA_IN 32
; yosys-smt2-wire i_DATA_IN 32
(declare-fun |mkAccumulator_formal#3| (|mkAccumulator_formal_s|) (_ BitVec 32)) ; \i_DATA_IN
(define-fun |mkAccumulator_formal_n i_DATA_IN| ((state |mkAccumulator_formal_s|)) (_ BitVec 32) (|mkAccumulator_formal#3| state))
; yosys-smt2-input i_CLK 1
; yosys-smt2-wire i_CLK 1
(declare-fun |mkAccumulator_formal#4| (|mkAccumulator_formal_s|) Bool) ; \i_CLK
(define-fun |mkAccumulator_formal_n i_CLK| ((state |mkAccumulator_formal_s|)) Bool (|mkAccumulator_formal#4| state))
; yosys-smt2-register f_past_valid 1
; yosys-smt2-wire f_past_valid 1
(declare-fun |mkAccumulator_formal#5| (|mkAccumulator_formal_s|) (_ BitVec 1)) ; \f_past_valid
(define-fun |mkAccumulator_formal_n f_past_valid| ((state |mkAccumulator_formal_s|)) Bool (= ((_ extract 0 0) (|mkAccumulator_formal#5| state)) #b1))
; yosys-smt2-wire acc_total$EN 1
(define-fun |mkAccumulator_formal_n acc_total$EN| ((state |mkAccumulator_formal_s|)) Bool (|mkAccumulator_formal#2| state))
; yosys-smt2-wire acc_total$D_IN 32
(define-fun |mkAccumulator_formal#6| ((state |mkAccumulator_formal_s|)) (_ BitVec 32) (bvadd (|mkAccumulator_formal#0| state) (|mkAccumulator_formal#3| state))) ; \acc_total$D_IN
(define-fun |mkAccumulator_formal_n acc_total$D_IN| ((state |mkAccumulator_formal_s|)) (_ BitVec 32) (|mkAccumulator_formal#6| state))
; yosys-smt2-register acc_total 32
; yosys-smt2-wire acc_total 32
(define-fun |mkAccumulator_formal_n acc_total| ((state |mkAccumulator_formal_s|)) (_ BitVec 32) (|mkAccumulator_formal#0| state))
; yosys-smt2-register $past$mkAccumulator_formal.v:118$10$0 32
(declare-fun |mkAccumulator_formal#7| (|mkAccumulator_formal_s|) (_ BitVec 32)) ; $past$mkAccumulator_formal.v:118$10$0
(define-fun |mkAccumulator_formal_n $past$mkAccumulator_formal.v:118$10$0| ((state |mkAccumulator_formal_s|)) (_ BitVec 32) (|mkAccumulator_formal#7| state))
; yosys-smt2-register $past$mkAccumulator_formal.v:115$7$0 1
(declare-fun |mkAccumulator_formal#8| (|mkAccumulator_formal_s|) (_ BitVec 1)) ; $past$mkAccumulator_formal.v:115$7$0
(define-fun |mkAccumulator_formal_n $past$mkAccumulator_formal.v:115$7$0| ((state |mkAccumulator_formal_s|)) Bool (= ((_ extract 0 0) (|mkAccumulator_formal#8| state)) #b1))
; yosys-smt2-register $past$mkAccumulator_formal.v:112$4$0 32
(declare-fun |mkAccumulator_formal#9| (|mkAccumulator_formal_s|) (_ BitVec 32)) ; $past$mkAccumulator_formal.v:112$4$0
(define-fun |mkAccumulator_formal_n $past$mkAccumulator_formal.v:112$4$0| ((state |mkAccumulator_formal_s|)) (_ BitVec 32) (|mkAccumulator_formal#9| state))
; yosys-smt2-register $past$mkAccumulator_formal.v:110$3$0 1
(declare-fun |mkAccumulator_formal#10| (|mkAccumulator_formal_s|) (_ BitVec 1)) ; $past$mkAccumulator_formal.v:110$3$0
(define-fun |mkAccumulator_formal_n $past$mkAccumulator_formal.v:110$3$0| ((state |mkAccumulator_formal_s|)) Bool (= ((_ extract 0 0) (|mkAccumulator_formal#10| state)) #b1))
; yosys-smt2-register $formal$mkAccumulator_formal.v:118$18_CHECK 1
(declare-fun |mkAccumulator_formal#11| (|mkAccumulator_formal_s|) (_ BitVec 1)) ; $formal$mkAccumulator_formal.v:118$18_CHECK
(define-fun |mkAccumulator_formal_n $formal$mkAccumulator_formal.v:118$18_CHECK| ((state |mkAccumulator_formal_s|)) Bool (= ((_ extract 0 0) (|mkAccumulator_formal#11| state)) #b1))
; yosys-smt2-register $formal$mkAccumulator_formal.v:116$17_EN 1
(declare-fun |mkAccumulator_formal#12| (|mkAccumulator_formal_s|) (_ BitVec 1)) ; $formal$mkAccumulator_formal.v:116$17_EN
(define-fun |mkAccumulator_formal_n $formal$mkAccumulator_formal.v:116$17_EN| ((state |mkAccumulator_formal_s|)) Bool (= ((_ extract 0 0) (|mkAccumulator_formal#12| state)) #b1))
; yosys-smt2-register $formal$mkAccumulator_formal.v:116$17_CHECK 1
(declare-fun |mkAccumulator_formal#13| (|mkAccumulator_formal_s|) (_ BitVec 1)) ; $formal$mkAccumulator_formal.v:116$17_CHECK
(define-fun |mkAccumulator_formal_n $formal$mkAccumulator_formal.v:116$17_CHECK| ((state |mkAccumulator_formal_s|)) Bool (= ((_ extract 0 0) (|mkAccumulator_formal#13| state)) #b1))
; yosys-smt2-register $formal$mkAccumulator_formal.v:114$16_CHECK 1
(declare-fun |mkAccumulator_formal#14| (|mkAccumulator_formal_s|) (_ BitVec 1)) ; $formal$mkAccumulator_formal.v:114$16_CHECK
(define-fun |mkAccumulator_formal_n $formal$mkAccumulator_formal.v:114$16_CHECK| ((state |mkAccumulator_formal_s|)) Bool (= ((_ extract 0 0) (|mkAccumulator_formal#14| state)) #b1))
; yosys-smt2-register $formal$mkAccumulator_formal.v:113$15_CHECK 1
(declare-fun |mkAccumulator_formal#15| (|mkAccumulator_formal_s|) (_ BitVec 1)) ; $formal$mkAccumulator_formal.v:113$15_CHECK
(define-fun |mkAccumulator_formal_n $formal$mkAccumulator_formal.v:113$15_CHECK| ((state |mkAccumulator_formal_s|)) Bool (= ((_ extract 0 0) (|mkAccumulator_formal#15| state)) #b1))
; yosys-smt2-register $formal$mkAccumulator_formal.v:112$14_EN 1
(declare-fun |mkAccumulator_formal#16| (|mkAccumulator_formal_s|) (_ BitVec 1)) ; $formal$mkAccumulator_formal.v:112$14_EN
(define-fun |mkAccumulator_formal_n $formal$mkAccumulator_formal.v:112$14_EN| ((state |mkAccumulator_formal_s|)) Bool (= ((_ extract 0 0) (|mkAccumulator_formal#16| state)) #b1))
; yosys-smt2-register $formal$mkAccumulator_formal.v:112$14_CHECK 1
(declare-fun |mkAccumulator_formal#17| (|mkAccumulator_formal_s|) (_ BitVec 1)) ; $formal$mkAccumulator_formal.v:112$14_CHECK
(define-fun |mkAccumulator_formal_n $formal$mkAccumulator_formal.v:112$14_CHECK| ((state |mkAccumulator_formal_s|)) Bool (= ((_ extract 0 0) (|mkAccumulator_formal#17| state)) #b1))
; yosys-smt2-register $and$mkAccumulator_formal.v:108$51_Y 1
(declare-fun |mkAccumulator_formal#18| (|mkAccumulator_formal_s|) (_ BitVec 1)) ; $and$mkAccumulator_formal.v:108$51_Y
(define-fun |mkAccumulator_formal_n $and$mkAccumulator_formal.v:108$51_Y| ((state |mkAccumulator_formal_s|)) Bool (= ((_ extract 0 0) (|mkAccumulator_formal#18| state)) #b1))
; yosys-smt2-cover 0 mkAccumulator_formal.v:114
(define-fun |mkAccumulator_formal_c 0| ((state |mkAccumulator_formal_s|)) Bool (and (= ((_ extract 0 0) (|mkAccumulator_formal#14| state)) #b1) (= ((_ extract 0 0) (|mkAccumulator_formal#16| state)) #b1))) ; $cover$mkAccumulator_formal.v:114$77
; yosys-smt2-cover 1 mkAccumulator_formal.v:113
(define-fun |mkAccumulator_formal_c 1| ((state |mkAccumulator_formal_s|)) Bool (and (= ((_ extract 0 0) (|mkAccumulator_formal#15| state)) #b1) (= ((_ extract 0 0) (|mkAccumulator_formal#16| state)) #b1))) ; $cover$mkAccumulator_formal.v:113$76
; yosys-smt2-cover 2 mkAccumulator_formal.v:112
(define-fun |mkAccumulator_formal_c 2| ((state |mkAccumulator_formal_s|)) Bool (and (= ((_ extract 0 0) (|mkAccumulator_formal#17| state)) #b1) (= ((_ extract 0 0) (|mkAccumulator_formal#16| state)) #b1))) ; $cover$mkAccumulator_formal.v:112$75
(define-fun |mkAccumulator_formal#19| ((state |mkAccumulator_formal_s|)) Bool (distinct (|mkAccumulator_formal#18| state) (ite (|mkAccumulator_formal#4| state) #b1 #b0))) ; $0$formal$mkAccumulator_formal.v:107$13_CHECK[0:0]$36
; yosys-smt2-assume 0 mkAccumulator_formal.v:107
(define-fun |mkAccumulator_formal_u 0| ((state |mkAccumulator_formal_s|)) Bool (or (|mkAccumulator_formal#19| state) (not true))) ; $assume$mkAccumulator_formal.v:107$74
; yosys-smt2-anyseq mkAccumulator_formal#20 1 $auto$setundef.cc:524:execute$199
(declare-fun |mkAccumulator_formal#20| (|mkAccumulator_formal_s|) (_ BitVec 1)) ; $auto$rtlil.cc:2318:Anyseq$200
; yosys-smt2-assert 0 mkAccumulator_formal.v:120
(define-fun |mkAccumulator_formal_a 0| ((state |mkAccumulator_formal_s|)) Bool (or (= ((_ extract 0 0) (|mkAccumulator_formal#20| state)) #b1) (not false))) ; $assert$mkAccumulator_formal.v:120$80
; yosys-smt2-assert 1 mkAccumulator_formal.v:118
(define-fun |mkAccumulator_formal_a 1| ((state |mkAccumulator_formal_s|)) Bool (or (= ((_ extract 0 0) (|mkAccumulator_formal#11| state)) #b1) (not (= ((_ extract 0 0) (|mkAccumulator_formal#16| state)) #b1)))) ; $assert$mkAccumulator_formal.v:118$79
; yosys-smt2-assert 2 mkAccumulator_formal.v:116
(define-fun |mkAccumulator_formal_a 2| ((state |mkAccumulator_formal_s|)) Bool (or (= ((_ extract 0 0) (|mkAccumulator_formal#13| state)) #b1) (not (= ((_ extract 0 0) (|mkAccumulator_formal#12| state)) #b1)))) ; $assert$mkAccumulator_formal.v:116$78
; yosys-smt2-anyseq mkAccumulator_formal#21 1 $auto$setundef.cc:524:execute$203
(declare-fun |mkAccumulator_formal#21| (|mkAccumulator_formal_s|) (_ BitVec 1)) ; $auto$rtlil.cc:2318:Anyseq$204
; yosys-smt2-anyseq mkAccumulator_formal#22 1 $auto$setundef.cc:524:execute$201
(declare-fun |mkAccumulator_formal#22| (|mkAccumulator_formal_s|) (_ BitVec 1)) ; $auto$rtlil.cc:2318:Anyseq$202
(define-fun |mkAccumulator_formal#23| ((state |mkAccumulator_formal_s|)) Bool (not (or  (= ((_ extract 0 0) (|mkAccumulator_formal#9| state)) #b1) (= ((_ extract 1 1) (|mkAccumulator_formal#9| state)) #b1) (= ((_ extract 2 2) (|mkAccumulator_formal#9| state)) #b1) (= ((_ extract 3 3) (|mkAccumulator_formal#9| state)) #b1) (= ((_ extract 4 4) (|mkAccumulator_formal#9| state)) #b1) (= ((_ extract 5 5) (|mkAccumulator_formal#9| state)) #b1) (= ((_ extract 6 6) (|mkAccumulator_formal#9| state)) #b1) (= ((_ extract 7 7) (|mkAccumulator_formal#9| state)) #b1) (= ((_ extract 8 8) (|mkAccumulator_formal#9| state)) #b1) (= ((_ extract 9 9) (|mkAccumulator_formal#9| state)) #b1) (= ((_ extract 10 10) (|mkAccumulator_formal#9| state)) #b1) (= ((_ extract 11 11) (|mkAccumulator_formal#9| state)) #b1) (= ((_ extract 12 12) (|mkAccumulator_formal#9| state)) #b1) (= ((_ extract 13 13) (|mkAccumulator_formal#9| state)) #b1) (= ((_ extract 14 14) (|mkAccumulator_formal#9| state)) #b1) (= ((_ extract 15 15) (|mkAccumulator_formal#9| state)) #b1) (= ((_ extract 16 16) (|mkAccumulator_formal#9| state)) #b1) (= ((_ extract 17 17) (|mkAccumulator_formal#9| state)) #b1) (= ((_ extract 18 18) (|mkAccumulator_formal#9| state)) #b1) (= ((_ extract 19 19) (|mkAccumulator_formal#9| state)) #b1) (= ((_ extract 20 20) (|mkAccumulator_formal#9| state)) #b1) (= ((_ extract 21 21) (|mkAccumulator_formal#9| state)) #b1) (= ((_ extract 22 22) (|mkAccumulator_formal#9| state)) #b1) (= ((_ extract 23 23) (|mkAccumulator_formal#9| state)) #b1) (= ((_ extract 24 24) (|mkAccumulator_formal#9| state)) #b1) (= ((_ extract 25 25) (|mkAccumulator_formal#9| state)) #b1) (= ((_ extract 26 26) (|mkAccumulator_formal#9| state)) #b1) (= ((_ extract 27 27) (|mkAccumulator_formal#9| state)) #b1) (= ((_ extract 28 28) (|mkAccumulator_formal#9| state)) #b1) (= ((_ extract 29 29) (|mkAccumulator_formal#9| state)) #b1) (= ((_ extract 30 30) (|mkAccumulator_formal#9| state)) #b1) (= ((_ extract 31 31) (|mkAccumulator_formal#9| state)) #b1)))) ; $eq$mkAccumulator_formal.v:112$56_Y
(define-fun |mkAccumulator_formal#24| ((state |mkAccumulator_formal_s|)) Bool (= (|mkAccumulator_formal#0| state) #b11111111111111111111111111100000)) ; $eq$mkAccumulator_formal.v:112$57_Y
(define-fun |mkAccumulator_formal#25| ((state |mkAccumulator_formal_s|)) Bool (and (or  (|mkAccumulator_formal#23| state) false) (or  (|mkAccumulator_formal#24| state) false))) ; $logic_and$mkAccumulator_formal.v:112$58_Y
(define-fun |mkAccumulator_formal#26| ((state |mkAccumulator_formal_s|)) (_ BitVec 1) (ite (= ((_ extract 0 0) (|mkAccumulator_formal#10| state)) #b1) (ite (|mkAccumulator_formal#25| state) #b1 #b0) (|mkAccumulator_formal#22| state))) ; $procmux$100_Y
(define-fun |mkAccumulator_formal#27| ((state |mkAccumulator_formal_s|)) Bool (not (or  (= ((_ extract 0 0) (|mkAccumulator_formal#18| state)) #b1) false false false false false false false false false false false false false false false false false false false false false false false false false false false false false false false))) ; $logic_not$mkAccumulator_formal.v:108$52_Y
(define-fun |mkAccumulator_formal#28| ((state |mkAccumulator_formal_s|)) Bool (and (or  (|mkAccumulator_formal#27| state) false) (or  (|mkAccumulator_formal#4| state) false false false false false false false false false false false false false false false false false false false false false false false false false false false false false false false))) ; $logic_and$mkAccumulator_formal.v:108$54_Y
(define-fun |mkAccumulator_formal#29| ((state |mkAccumulator_formal_s|)) Bool (and (or  (|mkAccumulator_formal#28| state) false) (or  (= ((_ extract 0 0) (|mkAccumulator_formal#5| state)) #b1) false))) ; $logic_and$mkAccumulator_formal.v:108$55_Y
(define-fun |mkAccumulator_formal#30| ((state |mkAccumulator_formal_s|)) (_ BitVec 1) (ite (|mkAccumulator_formal#29| state) (|mkAccumulator_formal#26| state) (|mkAccumulator_formal#21| state))) ; $0$formal$mkAccumulator_formal.v:112$14_CHECK[0:0]$38
(define-fun |mkAccumulator_formal#31| ((state |mkAccumulator_formal_s|)) (_ BitVec 1) (ite (= ((_ extract 0 0) (|mkAccumulator_formal#10| state)) #b1) #b1 #b0)) ; $procmux$104_Y
(define-fun |mkAccumulator_formal#32| ((state |mkAccumulator_formal_s|)) (_ BitVec 1) (ite (|mkAccumulator_formal#29| state) (|mkAccumulator_formal#31| state) #b0)) ; $0$formal$mkAccumulator_formal.v:112$14_EN[0:0]$39
; yosys-smt2-anyseq mkAccumulator_formal#33 1 $auto$setundef.cc:524:execute$207
(declare-fun |mkAccumulator_formal#33| (|mkAccumulator_formal_s|) (_ BitVec 1)) ; $auto$rtlil.cc:2318:Anyseq$208
; yosys-smt2-anyseq mkAccumulator_formal#34 1 $auto$setundef.cc:524:execute$205
(declare-fun |mkAccumulator_formal#34| (|mkAccumulator_formal_s|) (_ BitVec 1)) ; $auto$rtlil.cc:2318:Anyseq$206
(define-fun |mkAccumulator_formal#35| ((state |mkAccumulator_formal_s|)) Bool (= (|mkAccumulator_formal#0| state) #b00000000000000000000000001100100)) ; $eq$mkAccumulator_formal.v:113$60_Y
(define-fun |mkAccumulator_formal#36| ((state |mkAccumulator_formal_s|)) Bool (and (or  (|mkAccumulator_formal#23| state) false) (or  (|mkAccumulator_formal#35| state) false))) ; $logic_and$mkAccumulator_formal.v:113$61_Y
(define-fun |mkAccumulator_formal#37| ((state |mkAccumulator_formal_s|)) (_ BitVec 1) (ite (= ((_ extract 0 0) (|mkAccumulator_formal#10| state)) #b1) (ite (|mkAccumulator_formal#36| state) #b1 #b0) (|mkAccumulator_formal#34| state))) ; $procmux$108_Y
(define-fun |mkAccumulator_formal#38| ((state |mkAccumulator_formal_s|)) (_ BitVec 1) (ite (|mkAccumulator_formal#29| state) (|mkAccumulator_formal#37| state) (|mkAccumulator_formal#33| state))) ; $0$formal$mkAccumulator_formal.v:113$15_CHECK[0:0]$40
; yosys-smt2-anyseq mkAccumulator_formal#39 1 $auto$setundef.cc:524:execute$211
(declare-fun |mkAccumulator_formal#39| (|mkAccumulator_formal_s|) (_ BitVec 1)) ; $auto$rtlil.cc:2318:Anyseq$212
; yosys-smt2-anyseq mkAccumulator_formal#40 1 $auto$setundef.cc:524:execute$209
(declare-fun |mkAccumulator_formal#40| (|mkAccumulator_formal_s|) (_ BitVec 1)) ; $auto$rtlil.cc:2318:Anyseq$210
(define-fun |mkAccumulator_formal#41| ((state |mkAccumulator_formal_s|)) Bool (not (or  (= ((_ extract 0 0) (|mkAccumulator_formal#0| state)) #b1) (= ((_ extract 1 1) (|mkAccumulator_formal#0| state)) #b1) (= ((_ extract 2 2) (|mkAccumulator_formal#0| state)) #b1) (= ((_ extract 3 3) (|mkAccumulator_formal#0| state)) #b1) (= ((_ extract 4 4) (|mkAccumulator_formal#0| state)) #b1) (= ((_ extract 5 5) (|mkAccumulator_formal#0| state)) #b1) (= ((_ extract 6 6) (|mkAccumulator_formal#0| state)) #b1) (= ((_ extract 7 7) (|mkAccumulator_formal#0| state)) #b1) (= ((_ extract 8 8) (|mkAccumulator_formal#0| state)) #b1) (= ((_ extract 9 9) (|mkAccumulator_formal#0| state)) #b1) (= ((_ extract 10 10) (|mkAccumulator_formal#0| state)) #b1) (= ((_ extract 11 11) (|mkAccumulator_formal#0| state)) #b1) (= ((_ extract 12 12) (|mkAccumulator_formal#0| state)) #b1) (= ((_ extract 13 13) (|mkAccumulator_formal#0| state)) #b1) (= ((_ extract 14 14) (|mkAccumulator_formal#0| state)) #b1) (= ((_ extract 15 15) (|mkAccumulator_formal#0| state)) #b1) (= ((_ extract 16 16) (|mkAccumulator_formal#0| state)) #b1) (= ((_ extract 17 17) (|mkAccumulator_formal#0| state)) #b1) (= ((_ extract 18 18) (|mkAccumulator_formal#0| state)) #b1) (= ((_ extract 19 19) (|mkAccumulator_formal#0| state)) #b1) (= ((_ extract 20 20) (|mkAccumulator_formal#0| state)) #b1) (= ((_ extract 21 21) (|mkAccumulator_formal#0| state)) #b1) (= ((_ extract 22 22) (|mkAccumulator_formal#0| state)) #b1) (= ((_ extract 23 23) (|mkAccumulator_formal#0| state)) #b1) (= ((_ extract 24 24) (|mkAccumulator_formal#0| state)) #b1) (= ((_ extract 25 25) (|mkAccumulator_formal#0| state)) #b1) (= ((_ extract 26 26) (|mkAccumulator_formal#0| state)) #b1) (= ((_ extract 27 27) (|mkAccumulator_formal#0| state)) #b1) (= ((_ extract 28 28) (|mkAccumulator_formal#0| state)) #b1) (= ((_ extract 29 29) (|mkAccumulator_formal#0| state)) #b1) (= ((_ extract 30 30) (|mkAccumulator_formal#0| state)) #b1) (= ((_ extract 31 31) (|mkAccumulator_formal#0| state)) #b1)))) ; $eq$mkAccumulator_formal.v:114$63_Y
(define-fun |mkAccumulator_formal#42| ((state |mkAccumulator_formal_s|)) Bool (and (or  (|mkAccumulator_formal#23| state) false) (or  (|mkAccumulator_formal#41| state) false))) ; $logic_and$mkAccumulator_formal.v:114$64_Y
(define-fun |mkAccumulator_formal#43| ((state |mkAccumulator_formal_s|)) (_ BitVec 1) (ite (= ((_ extract 0 0) (|mkAccumulator_formal#10| state)) #b1) (ite (|mkAccumulator_formal#42| state) #b1 #b0) (|mkAccumulator_formal#40| state))) ; $procmux$116_Y
(define-fun |mkAccumulator_formal#44| ((state |mkAccumulator_formal_s|)) (_ BitVec 1) (ite (|mkAccumulator_formal#29| state) (|mkAccumulator_formal#43| state) (|mkAccumulator_formal#39| state))) ; $0$formal$mkAccumulator_formal.v:114$16_CHECK[0:0]$42
; yosys-smt2-anyseq mkAccumulator_formal#45 1 $auto$setundef.cc:524:execute$217
(declare-fun |mkAccumulator_formal#45| (|mkAccumulator_formal_s|) (_ BitVec 1)) ; $auto$rtlil.cc:2318:Anyseq$218
; yosys-smt2-anyseq mkAccumulator_formal#46 1 $auto$setundef.cc:524:execute$215
(declare-fun |mkAccumulator_formal#46| (|mkAccumulator_formal_s|) (_ BitVec 1)) ; $auto$rtlil.cc:2318:Anyseq$216
; yosys-smt2-anyseq mkAccumulator_formal#47 1 $auto$setundef.cc:524:execute$213
(declare-fun |mkAccumulator_formal#47| (|mkAccumulator_formal_s|) (_ BitVec 1)) ; $auto$rtlil.cc:2318:Anyseq$214
(define-fun |mkAccumulator_formal#48| ((state |mkAccumulator_formal_s|)) (_ BitVec 1) (ite (= ((_ extract 0 0) (|mkAccumulator_formal#8| state)) #b1) (|mkAccumulator_formal#47| state) (ite (|mkAccumulator_formal#41| state) #b1 #b0))) ; $procmux$126_Y
(define-fun |mkAccumulator_formal#49| ((state |mkAccumulator_formal_s|)) (_ BitVec 1) (ite (= ((_ extract 0 0) (|mkAccumulator_formal#10| state)) #b1) (|mkAccumulator_formal#48| state) (|mkAccumulator_formal#46| state))) ; $procmux$128_Y
(define-fun |mkAccumulator_formal#50| ((state |mkAccumulator_formal_s|)) (_ BitVec 1) (ite (|mkAccumulator_formal#29| state) (|mkAccumulator_formal#49| state) (|mkAccumulator_formal#45| state))) ; $0$formal$mkAccumulator_formal.v:116$17_CHECK[0:0]$44
(define-fun |mkAccumulator_formal#51| ((state |mkAccumulator_formal_s|)) (_ BitVec 1) (ite (= ((_ extract 0 0) (|mkAccumulator_formal#8| state)) #b1) #b0 #b1)) ; $procmux$120_Y
(define-fun |mkAccumulator_formal#52| ((state |mkAccumulator_formal_s|)) (_ BitVec 1) (ite (= ((_ extract 0 0) (|mkAccumulator_formal#10| state)) #b1) (|mkAccumulator_formal#51| state) #b0)) ; $procmux$122_Y
(define-fun |mkAccumulator_formal#53| ((state |mkAccumulator_formal_s|)) (_ BitVec 1) (ite (|mkAccumulator_formal#29| state) (|mkAccumulator_formal#52| state) #b0)) ; $0$formal$mkAccumulator_formal.v:116$17_EN[0:0]$45
; yosys-smt2-anyseq mkAccumulator_formal#54 1 $auto$setundef.cc:524:execute$221
(declare-fun |mkAccumulator_formal#54| (|mkAccumulator_formal_s|) (_ BitVec 1)) ; $auto$rtlil.cc:2318:Anyseq$222
; yosys-smt2-anyseq mkAccumulator_formal#55 1 $auto$setundef.cc:524:execute$219
(declare-fun |mkAccumulator_formal#55| (|mkAccumulator_formal_s|) (_ BitVec 1)) ; $auto$rtlil.cc:2318:Anyseq$220
(define-fun |mkAccumulator_formal#56| ((state |mkAccumulator_formal_s|)) (_ BitVec 32) (bvadd (|mkAccumulator_formal#9| state) (|mkAccumulator_formal#7| state))) ; $add$mkAccumulator_formal.v:118$67_Y
(define-fun |mkAccumulator_formal#57| ((state |mkAccumulator_formal_s|)) Bool (= (|mkAccumulator_formal#0| state) (|mkAccumulator_formal#56| state))) ; $eq$mkAccumulator_formal.v:118$68_Y
(define-fun |mkAccumulator_formal#58| ((state |mkAccumulator_formal_s|)) (_ BitVec 1) (ite (= ((_ extract 0 0) (|mkAccumulator_formal#10| state)) #b1) (ite (|mkAccumulator_formal#57| state) #b1 #b0) (|mkAccumulator_formal#55| state))) ; $procmux$142_Y
(define-fun |mkAccumulator_formal#59| ((state |mkAccumulator_formal_s|)) (_ BitVec 1) (ite (|mkAccumulator_formal#29| state) (|mkAccumulator_formal#58| state) (|mkAccumulator_formal#54| state))) ; $0$formal$mkAccumulator_formal.v:118$18_CHECK[0:0]$46
(define-fun |mkAccumulator_formal#60| ((state |mkAccumulator_formal_s|)) Bool (and (or  (|mkAccumulator_formal#2| state) false) (or  (|mkAccumulator_formal#1| state) false))) ; $0$past$mkAccumulator_formal.v:110$3$0[0:0]$26
(define-fun |mkAccumulator_formal#61| ((state |mkAccumulator_formal_s|)) (_ BitVec 32) (ite (|mkAccumulator_formal#2| state) (|mkAccumulator_formal#6| state) (|mkAccumulator_formal#0| state))) ; $procmux$164_Y
(define-fun |mkAccumulator_formal#62| ((state |mkAccumulator_formal_s|)) (_ BitVec 32) (ite (|mkAccumulator_formal#1| state) (|mkAccumulator_formal#61| state) #b00000000000000000000000000000000)) ; $0\acc_total[31:0]
(define-fun |mkAccumulator_formal_a| ((state |mkAccumulator_formal_s|)) Bool (and
  (|mkAccumulator_formal_a 0| state)
  (|mkAccumulator_formal_a 1| state)
  (|mkAccumulator_formal_a 2| state)
))
(define-fun |mkAccumulator_formal_u| ((state |mkAccumulator_formal_s|)) Bool 
  (|mkAccumulator_formal_u 0| state)
)
(define-fun |mkAccumulator_formal_i| ((state |mkAccumulator_formal_s|)) Bool (and
  (= (= ((_ extract 0 0) (|mkAccumulator_formal#5| state)) #b1) false) ; f_past_valid
  (= (= ((_ extract 0 0) (|mkAccumulator_formal#12| state)) #b1) false) ; $formal$mkAccumulator_formal.v:116$17_EN
  (= (= ((_ extract 0 0) (|mkAccumulator_formal#16| state)) #b1) false) ; $formal$mkAccumulator_formal.v:112$14_EN
))
(define-fun |mkAccumulator_formal_h| ((state |mkAccumulator_formal_s|)) Bool true)
(define-fun |mkAccumulator_formal_t| ((state |mkAccumulator_formal_s|) (next_state |mkAccumulator_formal_s|)) Bool (and
  (= (ite (|mkAccumulator_formal#4| state) #b1 #b0) (|mkAccumulator_formal#18| next_state)) ; $procdff$170 $and$mkAccumulator_formal.v:108$51_Y
  (= (|mkAccumulator_formal#30| state) (|mkAccumulator_formal#17| next_state)) ; $procdff$184 $formal$mkAccumulator_formal.v:112$14_CHECK
  (= (|mkAccumulator_formal#32| state) (|mkAccumulator_formal#16| next_state)) ; $procdff$185 $formal$mkAccumulator_formal.v:112$14_EN
  (= (|mkAccumulator_formal#38| state) (|mkAccumulator_formal#15| next_state)) ; $procdff$186 $formal$mkAccumulator_formal.v:113$15_CHECK
  (= (|mkAccumulator_formal#44| state) (|mkAccumulator_formal#14| next_state)) ; $procdff$188 $formal$mkAccumulator_formal.v:114$16_CHECK
  (= (|mkAccumulator_formal#50| state) (|mkAccumulator_formal#13| next_state)) ; $procdff$190 $formal$mkAccumulator_formal.v:116$17_CHECK
  (= (|mkAccumulator_formal#53| state) (|mkAccumulator_formal#12| next_state)) ; $procdff$191 $formal$mkAccumulator_formal.v:116$17_EN
  (= (|mkAccumulator_formal#59| state) (|mkAccumulator_formal#11| next_state)) ; $procdff$192 $formal$mkAccumulator_formal.v:118$18_CHECK
  (= (ite (|mkAccumulator_formal#60| state) #b1 #b0) (|mkAccumulator_formal#10| next_state)) ; $procdff$172 $past$mkAccumulator_formal.v:110$3$0
  (= (|mkAccumulator_formal#0| state) (|mkAccumulator_formal#9| next_state)) ; $procdff$173 $past$mkAccumulator_formal.v:112$4$0
  (= (ite (|mkAccumulator_formal#1| state) #b1 #b0) (|mkAccumulator_formal#8| next_state)) ; $procdff$176 $past$mkAccumulator_formal.v:115$7$0
  (= (|mkAccumulator_formal#3| state) (|mkAccumulator_formal#7| next_state)) ; $procdff$179 $past$mkAccumulator_formal.v:118$10$0
  (= #b1 (|mkAccumulator_formal#5| next_state)) ; $procdff$169 \f_past_valid
  (= (|mkAccumulator_formal#62| state) (|mkAccumulator_formal#0| next_state)) ; $procdff$196 \acc_total
)) ; end of module mkAccumulator_formal
; yosys-smt2-topmod mkAccumulator_formal
; end of yosys output
